language Essence 1.3
letting n_cars be 200
letting n_classes be 19
letting n_options be 5
letting maxcars be function (1 --> 1, 2 --> 2, 3 --> 1, 4 --> 2, 5 --> 1)
letting blksize be function (1 --> 2, 2 --> 3, 3 --> 3, 4 --> 5, 5 --> 5)
letting quantity be function (1 --> 7, 2 --> 56, 3 --> 2, 4 --> 2, 5 --> 33, 6 --> 39, 7 --> 3, 8 --> 1, 9 --> 7, 10 --> 1, 11 --> 4, 12 --> 1, 13 --> 1, 14 --> 24, 15 --> 8, 16 --> 7, 17 --> 2, 18 --> 1, 19 --> 1)
letting usage be relation ((1,2),(1,3),(2,4),(3,2),(3,4),(3,5),(4,1),(4,2),(4,3),(5,3),(6,1),(7,1),(7,5),(8,1),(8,2),(8,5),(9,1),(9,2),(10,3),(10,4),(11,1),(11,3),(12,1),(12,3),(12,5),(13,2),(13,3),(13,4),(13,5),(14,2),(15,2),(15,4),(16,5),(17,2),(17,3),(17,4),(18,1),(18,4),(19,4),(19,5))

